Geographic Exponential Decay
40 141 193 137 136 309 234 218 273 272 112 88 36 65 290 207 183 109 262 6 164 105 258 190 308 178 70 175 130 110 227 122 119 40 124 49 303 157 100 294 252
p edge 320 1268
e 0 258 25.0
e 1 2 5.0
e 1 66 5.0
e 2 47 1.0
e 3 258 5.0
e 3 158 9.0
e 3 168 8.0
e 3 76 5.0
e 4 127 10.0
e 4 268 2.0
e 4 237 8.0
e 4 309 15.0
e 5 286 7.0
e 5 105 72.0
e 5 48 8.0
e 5 222 9.0
e 6 81 47.0
e 6 11 6.0
e 6 40 68.0
e 6 80 51.0
e 6 185 53.0
e 6 293 3.0
e 6 266 95.0
e 6 188 34.0
e 6 205 45.0
e 6 20 64.0
e 6 280 41.0
e 6 262 91.0
e 6 230 46.0
e 6 131 95.0
e 6 135 5.0
e 6 158 9.0
e 6 299 85.0
e 6 286 29.0
e 6 184 79.0
e 6 77 21.0
e 6 297 31.0
e 6 140 89.0
e 6 298 24.0
e 6 92 91.0
e 6 285 76.0
e 6 212 77.0
e 6 147 31.0
e 7 140 10.0
e 7 0 9.0
e 7 204 6.0
e 7 33 11.0
e 8 13 1.0
e 9 211 1.0
e 10 101 5.0
e 10 253 1.0
e 12 74 9.0
e 12 67 10.0
e 12 61 12.0
e 12 140 7.0
e 14 285 16.0
e 15 12 5.0
e 16 309 1.0
e 17 29 5.0
e 17 178 9.0
e 18 216 4.0
e 18 119 26.0
e 19 200 7.0
e 19 63 3.0
e 20 41 1.0
e 21 221 1.0
e 22 155 2.0
e 23 234 9.0
e 23 262 45.0
e 23 243 5.0
e 23 71 11.0
e 24 76 6.0
e 25 221 6.0
e 25 269 8.0
e 25 22 3.0
e 25 151 6.0
e 26 41 1.0
e 27 112 52.0
e 27 249 33.0
e 28 81 9.0
e 28 296 1.0
e 30 100 91.0
e 31 216 1.0
e 32 16 10.0
e 32 199 5.0
e 32 40 31.0
e 32 139 5.0
e 34 67 3.0
e 35 222 3.0
e 35 116 5.0
e 36 196 37.0
e 36 111 59.0
e 36 296 60.0
e 36 25 87.0
e 36 95 93.0
e 36 274 97.0
e 36 61 23.0
e 36 163 76.0
e 36 186 10.0
e 36 219 8.0
e 36 153 33.0
e 36 268 96.0
e 36 73 48.0
e 36 275 85.0
e 36 251 67.0
e 36 273 51.0
e 36 208 97.0
e 36 42 94.0
e 36 282 52.0
e 36 134 39.0
e 36 199 46.0
e 36 29 18.0
e 36 28 38.0
e 36 152 15.0
e 36 96 81.0
e 36 279 17.0
e 36 123 18.0
e 37 121 2.0
e 38 124 85.0
e 39 7 1.0
e 39 31 5.0
e 40 26 3.0
e 40 277 68.0
e 40 112 92.0
e 40 56 43.0
e 40 63 29.0
e 40 11 8.0
e 40 109 7.0
e 40 79 50.0
e 40 310 73.0
e 40 115 91.0
e 40 286 68.0
e 40 81 25.0
e 40 34 35.0
e 40 159 25.0
e 40 78 95.0
e 40 126 15.0
e 40 315 30.0
e 40 202 28.0
e 40 2 9.0
e 40 46 21.0
e 40 66 76.0
e 40 316 56.0
e 40 170 99.0
e 40 263 7.0
e 40 241 29.0
e 43 126 3.0
e 43 226 4.0
e 44 317 2.0
e 45 170 3.0
e 49 271 74.0
e 49 238 16.0
e 49 237 78.0
e 49 58 60.0
e 49 53 61.0
e 49 291 12.0
e 49 276 90.0
e 49 239 60.0
e 49 313 91.0
e 49 101 74.0
e 49 140 11.0
e 49 40 3.0
e 49 289 22.0
e 49 60 5.0
e 49 164 20.0
e 49 198 5.0
e 49 257 19.0
e 49 113 81.0
e 49 156 98.0
e 49 268 31.0
e 49 11 62.0
e 49 201 53.0
e 49 72 80.0
e 49 246 53.0
e 49 232 60.0
e 49 47 10.0
e 49 252 100.0
e 50 196 1.0
e 51 238 1.0
e 52 106 5.0
e 52 238 1.0
e 53 172 4.0
e 54 153 1.0
e 54 202 10.0
e 55 4 11.0
e 57 112 24.0
e 59 228 8.0
e 59 281 11.0
e 59 224 1.0
e 59 35 3.0
e 60 220 3.0
e 62 26 1.0
e 64 47 1.0
e 65 204 47.0
e 65 270 95.0
e 65 240 56.0
e 65 244 29.0
e 65 273 20.0
e 65 82 25.0
e 65 11 49.0
e 65 312 2.0
e 65 46 94.0
e 65 195 14.0
e 65 181 31.0
e 65 251 18.0
e 65 268 49.0
e 65 103 63.0
e 65 30 72.0
e 65 88 75.0
e 65 149 12.0
e 65 136 60.0
e 65 26 26.0
e 65 222 14.0
e 65 5 55.0
e 65 126 34.0
e 65 20 37.0
e 65 225 23.0
e 65 92 32.0
e 65 124 39.0
e 65 317 67.0
e 68 156 1.0
e 69 261 1.0
e 69 163 12.0
e 69 274 8.0
e 69 38 8.0
e 70 309 69.0
e 70 161 76.0
e 70 291 85.0
e 70 204 72.0
e 70 201 16.0
e 70 254 96.0
e 70 245 16.0
e 70 66 70.0
e 70 32 56.0
e 70 54 81.0
e 70 41 33.0
e 70 179 48.0
e 70 130 6.0
e 70 141 30.0
e 70 302 66.0
e 70 238 15.0
e 70 142 64.0
e 70 89 11.0
e 70 230 67.0
e 70 222 67.0
e 70 82 47.0
e 70 67 22.0
e 70 157 28.0
e 70 229 31.0
e 70 44 96.0
e 70 197 91.0
e 70 116 47.0
e 71 143 5.0
e 72 15 1.0
e 73 80 4.0
e 75 289 20.0
e 75 208 12.0
e 75 147 6.0
e 75 304 5.0
e 75 263 15.0
e 75 316 10.0
e 75 101 4.0
e 77 20 5.0
e 77 288 9.0
e 77 32 8.0
e 77 125 11.0
e 77 316 3.0
e 77 152 1.0
e 78 49 33.0
e 79 219 1.0
e 81 17 1.0
e 83 138 20.0
e 83 122 21.0
e 83 283 9.0
e 83 29 7.0
e 83 142 5.0
e 83 252 25.0
e 83 131 21.0
e 84 196 4.0
e 84 256 2.0
e 85 8 5.0
e 85 162 4.0
e 86 94 2.0
e 87 212 1.0
e 87 136 13.0
e 88 261 96.0
e 88 226 41.0
e 88 243 34.0
e 88 150 74.0
e 88 255 96.0
e 88 90 57.0
e 88 96 6.0
e 88 74 8.0
e 88 249 42.0
e 88 310 95.0
e 88 291 73.0
e 88 193 70.0
e 88 218 43.0
e 88 273 55.0
e 88 207 11.0
e 88 12 73.0
e 88 208 33.0
e 88 304 38.0
e 88 237 92.0
e 88 152 63.0
e 88 85 61.0
e 88 95 79.0
e 88 214 34.0
e 88 153 48.0
e 88 114 65.0
e 88 197 1.0
e 89 76 9.0
e 89 150 2.0
e 89 294 70.0
e 90 280 5.0
e 90 140 12.0
e 90 314 6.0
e 91 212 1.0
e 91 261 6.0
e 92 196 37.0
e 92 300 16.0
e 92 9 3.0
e 92 235 11.0
e 92 298 45.0
e 92 243 42.0
e 92 102 10.0
e 92 306 22.0
e 92 258 12.0
e 92 150 38.0
e 92 149 34.0
e 92 162 27.0
e 93 208 1.0
e 95 196 3.0
e 95 302 5.0
e 97 51 1.0
e 98 116 1.0
e 99 168 2.0
e 100 19 42.0
e 100 257 87.0
e 100 83 38.0
e 100 80 26.0
e 100 35 59.0
e 100 221 86.0
e 100 143 97.0
e 100 170 79.0
e 100 171 98.0
e 100 261 76.0
e 100 36 21.0
e 100 7 93.0
e 100 309 40.0
e 100 96 84.0
e 100 273 7.0
e 100 104 64.0
e 100 81 12.0
e 100 37 94.0
e 100 315 10.0
e 100 94 83.0
e 100 106 14.0
e 100 302 96.0
e 100 199 88.0
e 100 95 76.0
e 100 238 31.0
e 100 111 81.0
e 102 258 98.0
e 102 33 11.0
e 102 138 1.0
e 105 261 48.0
e 105 156 67.0
e 105 161 18.0
e 105 130 5.0
e 105 85 49.0
e 105 279 24.0
e 105 212 39.0
e 105 189 96.0
e 105 81 44.0
e 105 157 54.0
e 105 300 34.0
e 105 175 89.0
e 105 162 16.0
e 105 38 46.0
e 105 292 39.0
e 105 235 59.0
e 105 107 74.0
e 105 14 78.0
e 105 10 24.0
e 105 80 35.0
e 105 94 16.0
e 105 296 59.0
e 105 93 14.0
e 105 305 63.0
e 105 211 61.0
e 105 219 49.0
e 106 306 1.0
e 106 233 9.0
e 107 76 1.0
e 108 159 3.0
e 109 266 71.0
e 109 227 48.0
e 109 275 41.0
e 109 104 62.0
e 109 260 58.0
e 109 155 15.0
e 109 165 2.0
e 109 46 19.0
e 109 138 29.0
e 109 73 56.0
e 109 118 48.0
e 109 278 51.0
e 109 166 47.0
e 109 312 64.0
e 109 279 9.0
e 109 129 30.0
e 109 90 33.0
e 109 136 77.0
e 109 202 5.0
e 109 238 12.0
e 109 283 29.0
e 109 34 11.0
e 109 145 65.0
e 109 16 45.0
e 109 298 9.0
e 109 153 11.0
e 110 309 27.0
e 110 88 28.0
e 110 79 6.0
e 110 6 6.0
e 110 287 46.0
e 110 53 5.0
e 110 245 4.0
e 110 299 17.0
e 110 65 72.0
e 110 191 47.0
e 110 140 45.0
e 110 164 53.0
e 110 151 57.0
e 110 279 78.0
e 110 298 53.0
e 110 202 68.0
e 110 37 79.0
e 110 291 55.0
e 110 197 50.0
e 110 24 8.0
e 110 176 50.0
e 110 14 93.0
e 110 152 40.0
e 110 161 19.0
e 110 189 4.0
e 110 134 92.0
e 110 150 2.0
e 112 26 10.0
e 112 106 45.0
e 112 232 34.0
e 112 180 45.0
e 112 212 39.0
e 112 194 29.0
e 112 245 56.0
e 112 91 48.0
e 112 252 96.0
e 112 20 37.0
e 112 119 68.0
e 112 101 77.0
e 112 7 11.0
e 112 135 1.0
e 112 94 20.0
e 112 29 7.0
e 112 300 52.0
e 112 251 89.0
e 112 151 74.0
e 112 263 14.0
e 112 124 92.0
e 112 165 16.0
e 112 162 6.0
e 112 239 10.0
e 113 229 2.0
e 114 202 2.0
e 114 170 6.0
e 114 40 100.0
e 114 20 1.0
e 114 77 14.0
e 114 292 6.0
e 117 226 2.0
e 117 261 1.0
e 119 174 55.0
e 119 43 25.0
e 119 110 94.0
e 119 278 74.0
e 119 291 11.0
e 119 158 68.0
e 119 244 93.0
e 119 162 59.0
e 119 167 27.0
e 119 252 100.0
e 119 45 13.0
e 119 128 9.0
e 119 293 88.0
e 119 92 87.0
e 119 80 7.0
e 119 157 67.0
e 119 120 69.0
e 119 127 85.0
e 119 232 66.0
e 119 91 66.0
e 119 46 68.0
e 119 53 4.0
e 119 33 55.0
e 119 75 94.0
e 119 115 88.0
e 122 84 16.0
e 122 223 45.0
e 122 178 30.0
e 122 40 24.0
e 122 190 33.0
e 122 196 37.0
e 122 155 85.0
e 122 311 54.0
e 122 69 32.0
e 122 212 39.0
e 122 41 22.0
e 122 188 72.0
e 122 237 13.0
e 122 312 23.0
e 122 307 60.0
e 122 117 38.0
e 122 85 59.0
e 122 285 30.0
e 122 59 63.0
e 122 70 10.0
e 122 72 64.0
e 122 170 16.0
e 122 153 98.0
e 122 220 9.0
e 122 159 92.0
e 122 316 19.0
e 124 113 50.0
e 124 82 51.0
e 124 148 53.0
e 124 226 13.0
e 124 139 10.0
e 124 23 76.0
e 124 99 31.0
e 124 149 80.0
e 124 269 23.0
e 124 28 63.0
e 124 145 65.0
e 124 297 56.0
e 124 79 50.0
e 124 267 9.0
e 124 265 36.0
e 124 258 9.0
e 124 197 45.0
e 124 68 19.0
e 124 259 28.0
e 124 227 41.0
e 124 42 87.0
e 124 0 27.0
e 124 136 8.0
e 124 173 50.0
e 125 186 1.0
e 130 41 41.0
e 130 65 58.0
e 130 174 16.0
e 130 199 17.0
e 130 160 62.0
e 130 3 7.0
e 130 281 45.0
e 130 193 17.0
e 130 202 49.0
e 130 42 96.0
e 130 214 24.0
e 130 145 17.0
e 130 233 70.0
e 130 217 59.0
e 130 155 72.0
e 130 15 15.0
e 130 111 4.0
e 130 66 64.0
e 130 172 37.0
e 130 99 30.0
e 130 54 59.0
e 130 143 19.0
e 130 114 16.0
e 130 48 59.0
e 130 109 72.0
e 132 71 3.0
e 133 65 65.0
e 133 22 5.0
e 136 232 97.0
e 136 141 92.0
e 136 32 54.0
e 136 213 93.0
e 136 219 75.0
e 136 257 89.0
e 136 268 95.0
e 136 25 71.0
e 136 135 65.0
e 136 254 67.0
e 136 155 92.0
e 136 315 99.0
e 136 95 79.0
e 136 271 93.0
e 136 151 44.0
e 136 142 80.0
e 136 238 3.0
e 136 90 93.0
e 136 304 68.0
e 136 245 31.0
e 136 216 22.0
e 136 316 20.0
e 136 47 52.0
e 137 114 90.0
e 137 111 86.0
e 137 215 54.0
e 137 168 20.0
e 137 216 28.0
e 137 242 7.0
e 137 82 84.0
e 137 220 48.0
e 137 299 18.0
e 137 47 33.0
e 137 300 88.0
e 137 265 27.0
e 137 245 77.0
e 137 87 2.0
e 137 287 35.0
e 137 103 80.0
e 137 223 70.0
e 137 209 75.0
e 137 197 50.0
e 137 34 68.0
e 137 313 97.0
e 137 181 92.0
e 137 13 23.0
e 137 224 85.0
e 137 35 89.0
e 137 102 8.0
e 137 208 26.0
e 141 201 85.0
e 141 128 42.0
e 141 316 95.0
e 141 239 1.0
e 141 247 28.0
e 141 42 32.0
e 141 214 43.0
e 141 230 10.0
e 141 184 1.0
e 141 254 23.0
e 141 317 24.0
e 141 240 74.0
e 141 86 1.0
e 141 241 64.0
e 141 132 86.0
e 141 7 57.0
e 141 277 65.0
e 141 74 61.0
e 141 179 45.0
e 141 135 27.0
e 141 6 34.0
e 141 48 55.0
e 141 242 43.0
e 141 76 98.0
e 141 93 55.0
e 142 137 91.0
e 142 308 8.0
e 142 116 21.0
e 142 138 8.0
e 144 239 6.0
e 146 51 1.0
e 146 247 5.0
e 154 186 3.0
e 157 140 42.0
e 157 228 34.0
e 157 177 80.0
e 157 248 32.0
e 157 50 11.0
e 157 95 32.0
e 157 106 77.0
e 157 32 28.0
e 157 12 96.0
e 157 302 39.0
e 157 153 94.0
e 157 33 62.0
e 157 178 34.0
e 157 212 28.0
e 157 86 77.0
e 157 224 57.0
e 157 20 78.0
e 157 185 16.0
e 157 205 41.0
e 157 22 46.0
e 157 305 15.0
e 157 204 98.0
e 157 298 37.0
e 157 135 94.0
e 161 17 3.0
e 164 65 46.0
e 164 167 27.0
e 164 243 31.0
e 164 27 35.0
e 164 202 83.0
e 164 80 97.0
e 164 124 43.0
e 164 312 91.0
e 164 242 43.0
e 164 191 17.0
e 164 229 7.0
e 164 296 85.0
e 164 90 54.0
e 164 89 90.0
e 164 263 65.0
e 164 230 48.0
e 164 46 90.0
e 164 247 8.0
e 164 81 87.0
e 164 14 70.0
e 164 187 94.0
e 164 117 98.0
e 164 15 31.0
e 164 216 59.0
e 164 211 60.0
e 166 122 93.0
e 166 221 30.0
e 166 108 35.0
e 166 218 31.0
e 166 280 19.0
e 166 288 14.0
e 166 48 34.0
e 166 1 31.0
e 166 44 38.0
e 166 313 33.0
e 166 11 32.0
e 166 15 2.0
e 166 304 37.0
e 169 83 17.0
e 169 46 8.0
e 169 136 44.0
e 169 241 12.0
e 171 30 1.0
e 173 171 12.0
e 173 193 11.0
e 173 239 1.0
e 175 172 40.0
e 175 83 32.0
e 175 23 76.0
e 175 156 64.0
e 175 254 37.0
e 175 289 60.0
e 175 75 30.0
e 175 21 100.0
e 175 174 5.0
e 175 276 5.0
e 175 46 78.0
e 175 232 70.0
e 175 122 80.0
e 175 11 23.0
e 175 193 29.0
e 175 162 88.0
e 175 277 28.0
e 175 313 63.0
e 175 186 73.0
e 175 182 34.0
e 175 287 33.0
e 175 166 65.0
e 175 303 92.0
e 175 228 51.0
e 175 107 92.0
e 175 118 12.0
e 178 169 80.0
e 178 73 67.0
e 178 184 87.0
e 178 32 39.0
e 178 102 97.0
e 178 282 3.0
e 178 59 67.0
e 178 145 55.0
e 178 270 42.0
e 178 254 82.0
e 178 208 73.0
e 178 79 36.0
e 178 201 90.0
e 178 163 11.0
e 178 76 44.0
e 178 47 79.0
e 178 91 5.0
e 178 226 47.0
e 178 25 52.0
e 178 71 52.0
e 178 158 38.0
e 178 48 62.0
e 178 192 100.0
e 178 111 32.0
e 183 237 8.0
e 183 50 10.0
e 183 251 41.0
e 183 289 32.0
e 183 297 98.0
e 183 29 84.0
e 183 286 68.0
e 183 196 88.0
e 183 25 19.0
e 183 21 99.0
e 183 252 99.0
e 183 5 96.0
e 183 217 75.0
e 183 71 26.0
e 183 66 28.0
e 183 266 21.0
e 183 188 11.0
e 183 316 64.0
e 183 97 62.0
e 183 162 67.0
e 183 178 17.0
e 183 262 49.0
e 183 169 76.0
e 183 8 94.0
e 183 197 29.0
e 183 139 42.0
e 183 72 18.0
e 184 33 5.0
e 187 104 3.0
e 190 0 69.0
e 190 230 74.0
e 190 177 30.0
e 190 293 7.0
e 190 23 45.0
e 190 163 79.0
e 190 56 23.0
e 190 258 29.0
e 190 71 29.0
e 190 24 17.0
e 190 52 60.0
e 190 285 47.0
e 190 124 24.0
e 190 74 14.0
e 190 313 74.0
e 190 13 70.0
e 190 215 13.0
e 190 70 45.0
e 190 305 3.0
e 190 263 94.0
e 190 60 18.0
e 190 292 97.0
e 190 213 8.0
e 190 164 8.0
e 190 31 44.0
e 190 275 7.0
e 191 216 7.0
e 191 268 9.0
e 193 180 34.0
e 193 263 5.0
e 193 188 42.0
e 193 182 97.0
e 193 190 51.0
e 193 229 84.0
e 193 160 37.0
e 193 256 45.0
e 193 191 66.0
e 193 298 34.0
e 193 7 31.0
e 193 181 52.0
e 193 131 72.0
e 193 259 21.0
e 193 300 83.0
e 193 239 89.0
e 193 60 34.0
e 193 149 60.0
e 193 255 94.0
e 193 246 21.0
e 193 108 84.0
e 193 123 12.0
e 193 167 26.0
e 198 194 7.0
e 198 91 6.0
e 198 108 9.0
e 200 217 6.0
e 200 288 3.0
e 200 310 3.0
e 203 100 20.0
e 205 47 5.0
e 205 43 6.0
e 206 174 6.0
e 206 221 1.0
e 207 202 55.0
e 207 213 46.0
e 207 18 43.0
e 207 11 81.0
e 207 179 96.0
e 207 94 10.0
e 207 97 67.0
e 207 265 98.0
e 207 225 32.0
e 207 134 79.0
e 207 156 31.0
e 207 307 11.0
e 207 133 51.0
e 207 269 68.0
e 207 161 91.0
e 207 14 21.0
e 207 5 78.0
e 207 296 69.0
e 207 290 68.0
e 207 142 8.0
e 207 226 49.0
e 207 95 29.0
e 207 172 5.0
e 207 170 92.0
e 207 79 52.0
e 207 203 90.0
e 209 84 1.0
e 210 150 3.0
e 210 219 4.0
e 211 231 8.0
e 214 172 3.0
e 218 27 37.0
e 218 316 87.0
e 218 63 70.0
e 218 49 9.0
e 218 126 48.0
e 218 70 70.0
e 218 9 20.0
e 218 25 70.0
e 218 230 77.0
e 218 51 62.0
e 218 300 54.0
e 218 275 65.0
e 218 10 23.0
e 218 38 39.0
e 218 12 12.0
e 218 276 50.0
e 218 239 24.0
e 218 104 11.0
e 218 188 61.0
e 218 66 75.0
e 218 14 23.0
e 218 301 22.0
e 218 228 87.0
e 218 23 25.0
e 218 167 65.0
e 225 218 15.0
e 225 3 3.0
e 227 282 55.0
e 227 205 86.0
e 227 74 31.0
e 227 155 47.0
e 227 29 54.0
e 227 250 23.0
e 227 6 100.0
e 227 7 6.0
e 227 241 72.0
e 227 19 81.0
e 227 41 57.0
e 227 284 46.0
e 227 308 60.0
e 227 194 75.0
e 227 62 74.0
e 227 314 50.0
e 227 119 25.0
e 227 315 15.0
e 227 303 23.0
e 227 49 77.0
e 227 221 76.0
e 227 279 9.0
e 227 38 78.0
e 227 309 79.0
e 227 2 31.0
e 231 246 1.0
e 234 16 10.0
e 234 113 26.0
e 234 298 8.0
e 234 27 41.0
e 234 177 83.0
e 234 0 52.0
e 234 138 43.0
e 234 99 31.0
e 234 13 41.0
e 234 258 57.0
e 234 170 77.0
e 234 81 6.0
e 234 266 53.0
e 234 207 59.0
e 234 146 34.0
e 234 107 9.0
e 234 108 20.0
e 234 24 25.0
e 234 169 54.0
e 234 89 100.0
e 234 74 54.0
e 234 201 9.0
e 234 153 40.0
e 234 147 32.0
e 234 62 99.0
e 234 109 87.0
e 235 226 8.0
e 235 70 19.0
e 236 154 1.0
e 236 157 61.0
e 248 303 34.0
e 248 164 51.0
e 248 221 10.0
e 249 299 17.0
e 249 58 44.0
e 249 8 20.0
e 249 239 2.0
e 249 260 33.0
e 249 38 37.0
e 249 280 29.0
e 249 157 26.0
e 249 172 42.0
e 249 18 47.0
e 249 213 4.0
e 249 167 35.0
e 250 213 3.0
e 252 94 20.0
e 252 195 49.0
e 252 70 91.0
e 252 266 28.0
e 252 38 9.0
e 252 40 90.0
e 252 76 40.0
e 252 309 85.0
e 252 206 40.0
e 252 90 16.0
e 252 91 77.0
e 252 284 72.0
e 252 313 26.0
e 252 17 95.0
e 252 108 61.0
e 252 129 13.0
e 252 39 25.0
e 252 44 33.0
e 252 169 28.0
e 252 95 51.0
e 252 41 14.0
e 252 157 29.0
e 256 288 1.0
e 256 183 84.0
e 258 109 28.0
e 258 249 64.0
e 258 4 36.0
e 258 44 1.0
e 258 187 100.0
e 258 171 43.0
e 258 32 9.0
e 258 242 94.0
e 258 87 80.0
e 258 241 32.0
e 258 188 38.0
e 258 148 84.0
e 258 75 60.0
e 258 76 65.0
e 258 256 28.0
e 258 191 89.0
e 258 101 83.0
e 258 129 89.0
e 258 90 92.0
e 258 16 31.0
e 262 286 77.0
e 262 243 1.0
e 262 8 77.0
e 262 80 2.0
e 262 227 83.0
e 262 49 57.0
e 262 248 28.0
e 262 16 89.0
e 262 83 3.0
e 262 162 45.0
e 262 224 26.0
e 262 158 94.0
e 262 190 91.0
e 262 244 9.0
e 262 157 77.0
e 262 192 80.0
e 262 202 81.0
e 262 197 51.0
e 262 29 27.0
e 262 106 29.0
e 262 201 4.0
e 262 306 83.0
e 262 52 72.0
e 262 84 75.0
e 264 40 22.0
e 272 10 76.0
e 272 2 35.0
e 272 284 3.0
e 272 35 82.0
e 272 175 40.0
e 272 252 9.0
e 272 306 16.0
e 272 267 13.0
e 272 79 61.0
e 272 123 97.0
e 272 283 24.0
e 272 100 56.0
e 272 31 50.0
e 272 13 83.0
e 272 270 17.0
e 272 9 79.0
e 272 294 83.0
e 272 253 25.0
e 272 91 59.0
e 272 222 89.0
e 272 73 62.0
e 272 61 2.0
e 272 293 72.0
e 272 83 14.0
e 272 144 66.0
e 272 307 81.0
e 272 273 22.0
e 273 302 62.0
e 273 92 56.0
e 273 283 29.0
e 273 224 4.0
e 273 281 61.0
e 273 50 83.0
e 273 83 48.0
e 273 8 35.0
e 273 311 54.0
e 273 69 89.0
e 273 277 69.0
e 273 210 18.0
e 273 33 47.0
e 273 301 9.0
e 273 80 72.0
e 273 34 3.0
e 273 0 82.0
e 273 57 84.0
e 273 190 78.0
e 273 30 27.0
e 273 308 59.0
e 273 181 53.0
e 280 282 7.0
e 280 224 6.0
e 280 3 19.0
e 285 145 2.0
e 285 44 1.0
e 285 210 2.0
e 290 23 59.0
e 290 142 2.0
e 290 137 100.0
e 290 227 16.0
e 290 314 31.0
e 290 116 15.0
e 290 313 71.0
e 290 108 67.0
e 290 123 86.0
e 290 58 66.0
e 290 154 77.0
e 290 244 62.0
e 290 167 15.0
e 290 20 25.0
e 290 141 82.0
e 290 149 72.0
e 290 278 83.0
e 290 291 44.0
e 290 150 6.0
e 290 228 46.0
e 290 109 47.0
e 290 312 98.0
e 290 197 92.0
e 290 199 14.0
e 290 218 65.0
e 290 165 13.0
e 292 179 6.0
e 294 187 84.0
e 294 5 26.0
e 294 274 39.0
e 294 94 89.0
e 294 17 3.0
e 294 86 66.0
e 294 96 13.0
e 294 314 77.0
e 294 164 34.0
e 294 12 42.0
e 294 33 34.0
e 294 40 1.0
e 294 271 20.0
e 294 143 67.0
e 294 0 94.0
e 294 290 5.0
e 294 107 15.0
e 294 115 96.0
e 294 203 27.0
e 294 213 92.0
e 294 48 58.0
e 294 230 98.0
e 294 273 98.0
e 294 92 21.0
e 294 100 87.0
e 295 178 89.0
e 295 37 1.0
e 297 263 18.0
e 297 252 75.0
e 297 155 6.0
e 297 54 4.0
e 303 282 62.0
e 303 37 75.0
e 303 266 29.0
e 303 142 73.0
e 303 95 15.0
e 303 72 8.0
e 303 144 63.0
e 303 302 10.0
e 303 206 19.0
e 303 280 52.0
e 303 101 86.0
e 303 167 17.0
e 303 123 70.0
e 303 268 74.0
e 303 139 28.0
e 303 207 22.0
e 303 106 26.0
e 303 237 50.0
e 303 172 26.0
e 303 74 9.0
e 303 261 23.0
e 303 23 28.0
e 303 173 4.0
e 303 210 38.0
e 307 105 83.0
e 307 139 6.0
e 307 202 23.0
e 307 194 7.0
e 308 148 97.0
e 308 281 42.0
e 308 187 42.0
e 308 255 12.0
e 308 213 10.0
e 308 177 92.0
e 308 143 46.0
e 308 214 67.0
e 308 282 18.0
e 308 88 37.0
e 308 129 8.0
e 308 163 51.0
e 308 179 56.0
e 308 205 81.0
e 308 181 53.0
e 308 209 47.0
e 308 307 62.0
e 308 244 73.0
e 308 131 74.0
e 308 149 87.0
e 308 77 67.0
e 308 258 84.0
e 308 21 58.0
e 308 314 10.0
e 309 35 23.0
e 309 181 46.0
e 309 103 77.0
e 309 233 84.0
e 309 287 6.0
e 309 135 96.0
e 309 54 64.0
e 309 273 46.0
e 309 92 17.0
e 309 296 42.0
e 309 79 67.0
e 309 302 25.0
e 309 203 9.0
e 309 268 92.0
e 309 178 47.0
e 309 37 53.0
e 309 308 92.0
e 309 249 90.0
e 309 117 96.0
e 309 48 60.0
e 318 274 2.0
e 319 93 1.0
e 319 1 2.0
